Route #1: 30 1 35 18 20 16 11
Route #2: 29 43 23 40 25 3
Route #3: 41 14 13 38 9 36 22 6
Route #4: 17 12 39 34 19 27 28
Route #5: 26 10 37 42 32 21 5 24 33 15
Route #6: 7 8 31 2 4
Cost 1004.7757198582335